VER
4

OBJSENSE
MIN

VAR
257 1
F 257

CON
775 3
HVECQRE 513
HVECPSD 256
L= 6

OBJACOORD
1
0 1.0

ACOORD
757
0 0 1.0
1 1 1.0
2 2 1.0
3 3 1.0
4 4 1.0
5 5 1.0
6 6 1.0
7 7 1.0
8 8 1.0
9 9 1.0
10 10 1.0
11 11 1.0
12 12 1.0
13 13 1.0
14 14 1.0
15 15 1.0
16 16 1.0
17 17 1.0
18 18 1.0
19 19 1.0
20 20 1.0
21 21 1.0
22 22 1.0
23 23 1.0
24 24 1.0
25 25 1.0
26 26 1.0
27 27 1.0
28 28 1.0
29 29 1.0
30 30 1.0
31 31 1.0
32 32 1.0
33 33 1.0
34 34 1.0
35 35 1.0
36 36 1.0
37 37 1.0
38 38 1.0
39 39 1.0
40 40 1.0
41 41 1.0
42 42 1.0
43 43 1.0
44 44 1.0
45 45 1.0
46 46 1.0
47 47 1.0
48 48 1.0
49 49 1.0
50 50 1.0
51 51 1.0
52 52 1.0
53 53 1.0
54 54 1.0
55 55 1.0
56 56 1.0
57 57 1.0
58 58 1.0
59 59 1.0
60 60 1.0
61 61 1.0
62 62 1.0
63 63 1.0
64 64 1.0
65 65 1.0
66 66 1.0
67 67 1.0
68 68 1.0
69 69 1.0
70 70 1.0
71 71 1.0
72 72 1.0
73 73 1.0
74 74 1.0
75 75 1.0
76 76 1.0
77 77 1.0
78 78 1.0
79 79 1.0
80 80 1.0
81 81 1.0
82 82 1.0
83 83 1.0
84 84 1.0
85 85 1.0
86 86 1.0
87 87 1.0
88 88 1.0
89 89 1.0
90 90 1.0
91 91 1.0
92 92 1.0
93 93 1.0
94 94 1.0
95 95 1.0
96 96 1.0
97 97 1.0
98 98 1.0
99 99 1.0
100 100 1.0
101 101 1.0
102 102 1.0
103 103 1.0
104 104 1.0
105 105 1.0
106 106 1.0
107 107 1.0
108 108 1.0
109 109 1.0
110 110 1.0
111 111 1.0
112 112 1.0
113 113 1.0
114 114 1.0
115 115 1.0
116 116 1.0
117 117 1.0
118 118 1.0
119 119 1.0
120 120 1.0
121 121 1.0
122 122 1.0
123 123 1.0
124 124 1.0
125 125 1.0
126 126 1.0
127 127 1.0
128 128 1.0
129 129 1.0
130 130 1.0
131 131 1.0
132 132 1.0
133 133 1.0
134 134 1.0
135 135 1.0
136 136 1.0
137 137 1.0
138 138 1.0
139 139 1.0
140 140 1.0
141 141 1.0
142 142 1.0
143 143 1.0
144 144 1.0
145 145 1.0
146 146 1.0
147 147 1.0
148 148 1.0
149 149 1.0
150 150 1.0
151 151 1.0
152 152 1.0
153 153 1.0
154 154 1.0
155 155 1.0
156 156 1.0
157 157 1.0
158 158 1.0
159 159 1.0
160 160 1.0
161 161 1.0
162 162 1.0
163 163 1.0
164 164 1.0
165 165 1.0
166 166 1.0
167 167 1.0
168 168 1.0
169 169 1.0
170 170 1.0
171 171 1.0
172 172 1.0
173 173 1.0
174 174 1.0
175 175 1.0
176 176 1.0
177 177 1.0
178 178 1.0
179 179 1.0
180 180 1.0
181 181 1.0
182 182 1.0
183 183 1.0
184 184 1.0
185 185 1.0
186 186 1.0
187 187 1.0
188 188 1.0
189 189 1.0
190 190 1.0
191 191 1.0
192 192 1.0
193 193 1.0
194 194 1.0
195 195 1.0
196 196 1.0
197 197 1.0
198 198 1.0
199 199 1.0
200 200 1.0
201 201 1.0
202 202 1.0
203 203 1.0
204 204 1.0
205 205 1.0
206 206 1.0
207 207 1.0
208 208 1.0
209 209 1.0
210 210 1.0
211 211 1.0
212 212 1.0
213 213 1.0
214 214 1.0
215 215 1.0
216 216 1.0
217 217 1.0
218 218 1.0
219 219 1.0
220 220 1.0
221 221 1.0
222 222 1.0
223 223 1.0
224 224 1.0
225 225 1.0
226 226 1.0
227 227 1.0
228 228 1.0
229 229 1.0
230 230 1.0
231 231 1.0
232 232 1.0
233 233 1.0
234 234 1.0
235 235 1.0
236 236 1.0
237 237 1.0
238 238 1.0
239 239 1.0
240 240 1.0
241 241 1.0
242 242 1.0
243 243 1.0
244 244 1.0
245 245 1.0
246 246 1.0
247 247 1.0
248 248 1.0
249 249 1.0
250 250 1.0
251 251 1.0
252 252 1.0
253 253 1.0
254 254 1.0
255 255 1.0
256 256 1.0
257 1 1.0
258 2 1.0
259 3 1.0
260 4 1.0
261 5 1.0
262 6 1.0
263 7 1.0
264 8 1.0
265 9 1.0
266 10 1.0
267 11 1.0
268 12 1.0
269 13 1.0
270 14 1.0
271 15 1.0
272 16 1.0
281 25 1.0
290 34 1.0
291 35 1.0
292 36 1.0
301 45 1.0
302 46 1.0
303 47 1.0
304 48 1.0
305 49 1.0
314 58 1.0
315 59 1.0
316 60 1.0
317 61 1.0
318 62 1.0
319 63 1.0
320 64 1.0
337 81 1.0
354 98 1.0
355 99 1.0
356 100 1.0
373 117 1.0
374 118 1.0
375 119 1.0
376 120 1.0
377 121 1.0
394 138 1.0
395 139 1.0
396 140 1.0
397 141 1.0
398 142 1.0
399 143 1.0
400 144 1.0
425 169 1.0
450 194 1.0
451 195 1.0
452 196 1.0
477 221 1.0
478 222 1.0
479 223 1.0
480 224 1.0
481 225 1.0
506 250 1.0
507 251 1.0
508 252 1.0
509 253 1.0
510 254 1.0
511 255 1.0
512 256 1.0
513 1 1.0
514 2 1.0
515 3 1.0
516 4 1.0
517 5 1.0
518 6 1.0
519 7 1.0
520 8 1.0
521 9 1.0
522 10 1.0
523 11 1.0
524 12 1.0
525 13 1.0
526 14 1.0
527 15 1.0
528 16 1.0
529 17 1.0
530 18 1.0
531 19 1.0
532 20 1.0
533 21 1.0
534 22 1.0
535 23 1.0
536 24 1.0
537 25 1.0
538 26 1.0
539 27 1.0
540 28 1.0
541 29 1.0
542 30 1.0
543 31 1.0
544 32 1.0
545 33 1.0
546 34 1.0
547 35 1.0
548 36 1.0
549 37 1.0
550 38 1.0
551 39 1.0
552 40 1.0
553 41 1.0
554 42 1.0
555 43 1.0
556 44 1.0
557 45 1.0
558 46 1.0
559 47 1.0
560 48 1.0
561 49 1.0
562 50 1.0
563 51 1.0
564 52 1.0
565 53 1.0
566 54 1.0
567 55 1.0
568 56 1.0
569 57 1.0
570 58 1.0
571 59 1.0
572 60 1.0
573 61 1.0
574 62 1.0
575 63 1.0
576 64 1.0
577 65 1.0
578 66 1.0
579 67 1.0
580 68 1.0
581 69 1.0
582 70 1.0
583 71 1.0
584 72 1.0
585 73 1.0
586 74 1.0
587 75 1.0
588 76 1.0
589 77 1.0
590 78 1.0
591 79 1.0
592 80 1.0
593 81 1.0
594 82 1.0
595 83 1.0
596 84 1.0
597 85 1.0
598 86 1.0
599 87 1.0
600 88 1.0
601 89 1.0
602 90 1.0
603 91 1.0
604 92 1.0
605 93 1.0
606 94 1.0
607 95 1.0
608 96 1.0
609 97 1.0
610 98 1.0
611 99 1.0
612 100 1.0
613 101 1.0
614 102 1.0
615 103 1.0
616 104 1.0
617 105 1.0
618 106 1.0
619 107 1.0
620 108 1.0
621 109 1.0
622 110 1.0
623 111 1.0
624 112 1.0
625 113 1.0
626 114 1.0
627 115 1.0
628 116 1.0
629 117 1.0
630 118 1.0
631 119 1.0
632 120 1.0
633 121 1.0
634 122 1.0
635 123 1.0
636 124 1.0
637 125 1.0
638 126 1.0
639 127 1.0
640 128 1.0
641 129 1.0
642 130 1.0
643 131 1.0
644 132 1.0
645 133 1.0
646 134 1.0
647 135 1.0
648 136 1.0
649 137 1.0
650 138 1.0
651 139 1.0
652 140 1.0
653 141 1.0
654 142 1.0
655 143 1.0
656 144 1.0
657 145 1.0
658 146 1.0
659 147 1.0
660 148 1.0
661 149 1.0
662 150 1.0
663 151 1.0
664 152 1.0
665 153 1.0
666 154 1.0
667 155 1.0
668 156 1.0
669 157 1.0
670 158 1.0
671 159 1.0
672 160 1.0
673 161 1.0
674 162 1.0
675 163 1.0
676 164 1.0
677 165 1.0
678 166 1.0
679 167 1.0
680 168 1.0
681 169 1.0
682 170 1.0
683 171 1.0
684 172 1.0
685 173 1.0
686 174 1.0
687 175 1.0
688 176 1.0
689 177 1.0
690 178 1.0
691 179 1.0
692 180 1.0
693 181 1.0
694 182 1.0
695 183 1.0
696 184 1.0
697 185 1.0
698 186 1.0
699 187 1.0
700 188 1.0
701 189 1.0
702 190 1.0
703 191 1.0
704 192 1.0
705 193 1.0
706 194 1.0
707 195 1.0
708 196 1.0
709 197 1.0
710 198 1.0
711 199 1.0
712 200 1.0
713 201 1.0
714 202 1.0
715 203 1.0
716 204 1.0
717 205 1.0
718 206 1.0
719 207 1.0
720 208 1.0
721 209 1.0
722 210 1.0
723 211 1.0
724 212 1.0
725 213 1.0
726 214 1.0
727 215 1.0
728 216 1.0
729 217 1.0
730 218 1.0
731 219 1.0
732 220 1.0
733 221 1.0
734 222 1.0
735 223 1.0
736 224 1.0
737 225 1.0
738 226 1.0
739 227 1.0
740 228 1.0
741 229 1.0
742 230 1.0
743 231 1.0
744 232 1.0
745 233 1.0
746 234 1.0
747 235 1.0
748 236 1.0
749 237 1.0
750 238 1.0
751 239 1.0
752 240 1.0
753 241 1.0
754 242 1.0
755 243 1.0
756 244 1.0
757 245 1.0
758 246 1.0
759 247 1.0
760 248 1.0
761 249 1.0
762 250 1.0
763 251 1.0
764 252 1.0
765 253 1.0
766 254 1.0
767 255 1.0
768 256 1.0
769 1 1.0
769 36 1.0
769 121 1.0
769 256 1.0
770 1 0.25
770 4 0.25
770 9 0.25
770 16 0.25
770 19 0.3535533905932738
770 25 0.25
770 26 0.3535533905932738
770 36 0.25
770 43 0.3535533905932738
770 49 0.25
770 54 0.3535533905932738
770 64 0.25
770 69 0.3535533905932738
770 79 0.3535533905932738
770 81 0.25
770 88 0.3535533905932738
770 94 0.3535533905932738
770 100 0.25
770 101 0.3535533905932738
770 111 0.3535533905932738
770 121 0.25
770 124 0.3535533905932738
770 130 0.3535533905932738
770 144 0.25
770 151 0.3535533905932738
770 157 0.3535533905932738
770 163 0.3535533905932738
770 169 0.25
770 174 0.3535533905932738
770 184 0.3535533905932738
770 186 0.3535533905932738
770 196 0.25
770 199 0.3535533905932738
770 205 0.3535533905932738
770 219 0.3535533905932738
770 225 0.25
770 226 0.3535533905932738
770 236 0.3535533905932738
770 246 0.3535533905932738
770 256 0.25
771 1 0.25
771 4 0.25
771 9 0.25
771 16 0.25
771 19 -0.3535533905932738
771 25 0.25
771 26 0.3535533905932738
771 36 0.25
771 43 -0.3535533905932738
771 49 0.25
771 54 0.3535533905932738
771 64 0.25
771 69 -0.3535533905932738
771 79 -0.3535533905932738
771 81 0.25
771 88 -0.3535533905932738
771 94 0.3535533905932738
771 100 0.25
771 101 0.3535533905932738
771 111 0.3535533905932738
771 121 0.25
771 124 0.3535533905932738
771 130 -0.3535533905932738
771 144 0.25
771 151 0.3535533905932738
771 157 -0.3535533905932738
771 163 -0.3535533905932738
771 169 0.25
771 174 -0.3535533905932738
771 184 -0.3535533905932738
771 186 0.3535533905932738
771 196 0.25
771 199 -0.3535533905932738
771 205 0.3535533905932738
771 219 -0.3535533905932738
771 225 0.25
771 226 0.3535533905932738
771 236 0.3535533905932738
771 246 0.3535533905932738
771 256 0.25
772 1 0.25
772 4 0.25
772 9 0.25
772 16 0.25
772 19 -0.3535533905932738
772 25 0.25
772 26 0.3535533905932738
772 36 0.25
772 43 0.3535533905932738
772 49 0.25
772 54 -0.3535533905932738
772 64 0.25
772 69 0.3535533905932738
772 79 -0.3535533905932738
772 81 0.25
772 88 -0.3535533905932738
772 94 -0.3535533905932738
772 100 0.25
772 101 0.3535533905932738
772 111 0.3535533905932738
772 121 0.25
772 124 -0.3535533905932738
772 130 0.3535533905932738
772 144 0.25
772 151 -0.3535533905932738
772 157 -0.3535533905932738
772 163 0.3535533905932738
772 169 0.25
772 174 -0.3535533905932738
772 184 0.3535533905932738
772 186 -0.3535533905932738
772 196 0.25
772 199 0.3535533905932738
772 205 -0.3535533905932738
772 219 -0.3535533905932738
772 225 0.25
772 226 0.3535533905932738
772 236 0.3535533905932738
772 246 0.3535533905932738
772 256 0.25
773 1 0.25
773 4 0.25
773 9 0.25
773 16 0.25
773 19 0.3535533905932738
773 25 0.25
773 26 0.3535533905932738
773 36 0.25
773 43 -0.3535533905932738
773 49 0.25
773 54 -0.3535533905932738
773 64 0.25
773 69 -0.3535533905932738
773 79 0.3535533905932738
773 81 0.25
773 88 0.3535533905932738
773 94 -0.3535533905932738
773 100 0.25
773 101 0.3535533905932738
773 111 0.3535533905932738
773 121 0.25
773 124 -0.3535533905932738
773 130 -0.3535533905932738
773 144 0.25
773 151 -0.3535533905932738
773 157 0.3535533905932738
773 163 -0.3535533905932738
773 169 0.25
773 174 0.3535533905932738
773 184 -0.3535533905932738
773 186 -0.3535533905932738
773 196 0.25
773 199 -0.3535533905932738
773 205 -0.3535533905932738
773 219 0.3535533905932738
773 225 0.25
773 226 0.3535533905932738
773 236 0.3535533905932738
773 246 0.3535533905932738
773 256 0.25
774 1 1.0
774 4 1.0
774 9 1.0
774 16 1.0
774 25 1.0
774 36 1.0
774 49 1.0
774 64 1.0
774 81 1.0
774 100 1.0
774 121 1.0
774 144 1.0
774 169 1.0
774 196 1.0
774 225 1.0
774 256 1.0

BCOORD
6
769 0.9624999999999999
770 0.9624999999999999
771 0.9624999999999999
772 0.9624999999999999
773 0.9624999999999999
774 1.0
